
Gurobi 10.0.1 (win64) logging started Sun Aug 27 19:51:40 2023

Set parameter LogFile to value "results//log/Fattahi_setup_06_modified_old_makespan.log"
Gurobi Optimizer version 10.0.1 build v10.0.1rc0 (win64)

CPU model: AMD Ryzen 7 3700X 8-Core Processor, instruction set [SSE2|AVX|AVX2]
Thread count: 8 physical cores, 16 logical processors, using up to 16 threads

Optimize a model with 126 rows, 112 columns and 490 nonzeros
Model fingerprint: 0x440bb939
Variable types: 15 continuous, 97 integer (96 binary)
Coefficient statistics:
  Matrix range     [1e+00, 1e+06]
  Objective range  [1e+00, 1e+00]
  Bounds range     [1e+00, 1e+00]
  RHS range        [1e+00, 3e+06]
Presolve removed 29 rows and 59 columns
Presolve time: 0.00s
Presolved: 97 rows, 53 columns, 415 nonzeros
Variable types: 15 continuous, 38 integer (37 binary)

Root relaxation: objective 2.107000e+03, 46 iterations, 0.00 seconds (0.00 work units)

    Nodes    |    Current Node    |     Objective Bounds      |     Work
 Expl Unexpl |  Obj  Depth IntInf | Incumbent    BestBd   Gap | It/Node Time

     0     0 2107.00000    0   16          - 2107.00000      -     -    0s
H    0     0                    3551.0000000 2107.00000  40.7%     -    0s
H    0     0                    3429.0000000 2107.00000  38.6%     -    0s
     0     0 2319.00000    0   15 3429.00000 2319.00000  32.4%     -    0s
     0     0 2354.00000    0   14 3429.00000 2354.00000  31.4%     -    0s
     0     0 2354.00000    0   14 3429.00000 2354.00000  31.4%     -    0s
     0     0 2399.00000    0   13 3429.00000 2399.00000  30.0%     -    0s
H    0     0                    3403.0000000 2399.00000  29.5%     -    0s
     0     0 2409.00000    0   13 3403.00000 2409.00000  29.2%     -    0s
     0     0 2409.00000    0   13 3403.00000 2409.00000  29.2%     -    0s
H    0     0                    3346.0000000 2409.00000  28.0%     -    0s
     0     0 2419.00000    0   14 3346.00000 2419.00000  27.7%     -    0s
     0     0 2419.00000    0    6 3346.00000 2419.00000  27.7%     -    0s
     0     0 2419.00000    0    6 3346.00000 2419.00000  27.7%     -    0s
H    0     0                    3324.0000000 2419.00000  27.2%     -    0s
     0     2 2419.00000    0    6 3324.00000 2419.00000  27.2%     -    0s
H   82    18                    3306.0000000 2798.00000  15.4%   5.6    0s

Cutting planes:
  Learned: 10
  Gomory: 1
  Cover: 1
  Implied bound: 4
  MIR: 2
  Flow cover: 10

Explored 177 nodes (921 simplex iterations) in 0.05 seconds (0.02 work units)
Thread count was 16 (of 16 available processors)

Solution count 7: 3306 3306 3324 ... 3551

Optimal solution found (tolerance 1.00e-04)
Best objective 3.306000000000e+03, best bound 3.306000000000e+03, gap 0.0000%
Warning: constraint name "precedence between 0,1 to 0,0 if x_[j,l,h,z,i]=1" has a space
Warning: constraint name "precedence between 0,1 to 0,0 if x_[j,l,h,z,i]=1" has a space
Warning: default constraint names used to write mps file
